p cnf 20 7
a 1 0
e 2 3 0
a 4 5 0
e 6 0
a 7 0
e 8 0
a 9 0
e 10 11 0
a 12 0
e 13 0
a 14 15 16 0
e 17 0
a 18 0
e 19 20 0
11 -5 0
1 7 -20 14 0
14 -8 7 4 -18 0
2 15 -9 0
12 -7 -5 -6 0
17 -20 10 8 11 0
-6 4 9 -1 0
